100
100
97
97
97
96
96
95
94
94
94
90
89
86
85
84
83
79
78
78
78
77
77
77
76
76
75
75
74
74
72
72
71
71
70
69
69
67
67
66
66
66
66
65
65
64
63
63
62
62
61
60
59
59
57
56
56
55
53
53
52
52
51
51
51
50
50
49
49
49
49
48
48
47
47
45
43
40
39
37
37
35
34
33
33
32
32
31
30
29
28
28
28
27
27
27
25
24
24
23
23
22
